g3 0 1 0	# problem ex8_3_7
 126 92 1 0 92	# vars, constraints, objectives, ranges, eqns
 65 1	# nonlinear constraints, objectives
 0 0	# network constraints: nonlinear, linear
 121 2 2	# nonlinear vars in constraints, objectives, both
 0 0 0 1	# linear network variables; functions; arith, flags
 0 0 0 0 0	# discrete variables: binary, integer, nonlinear (b,c,o)
 666 2	# nonzeros in Jacobian, gradients
 0 0	# max name lengths: constraints, variables
 0 0 0 0 0	# common exprs: b,c,o,c1,o1
b
0 0 10
0 0 10
0 0 1000
0 0 1000
0 0 1000
0 0 1000
0 0 1000
0 0 10
0 0 10
0 0 10
0 0 10
0 0 10
0 0 10
0 0 10
0 0 10
0 0 10
0 0 10
0 0 10
0 0 10
0 0 10
0 0 10
0 0 10
0 0 10
0 0 10
0 0 10
0 0 10
0 0 10
0 0 10
0 0 10
0 0 10
0 0 10
0 0 10
0 0 1000
0 0 1000
0 0 1000
0 0 1000
0 0 1000
0 0 10
0 0 10
0 0 10
0 0 10
0 0 10
0 0 10
0 0 10
0 0 10
0 0 10
0 0 10
0 0 10
0 0 10
0 0 10
0 0 10
0 0 10
0 0 10
0 0 10
0 0 10
0 0 10
0 0 10
0 0 10
0 0 10
0 0 10
0 0 10
0 0 10
0 0 1000
0 0 1000
0 0 1000
0 0 1000
0 0 1000
0 0 1000
0 0 1000
0 0 1000
0 0 1000
0 0 1000
0 0 1000
0 0 1000
0 0 1000
0 0 1000
0 0 1000
0 0 1000
0 0 1000
0 0 1000
0 0 1000
0 0 1000
0 0 1000
0 0 1000
0 0 1000
0 0 1000
0 0 1000
0 0 1000
0 0 1000
0 0 1000
0 0 1000
0 0 1000
0 0 1000
0 0 10
0 0 10
0 0 10
0 0 10000
0 0 10000
0 0 10000
0 0 10000
0 0 10000
0 0 10000
0 0 10000
0 0 10000
0 0 10000
0 0 10000
0 0 10000
0 0 10000
0 0 10000
0 0 10000
0 0 10000
0 0 10000
0 0 10000
0 0 10000
0 0 10000
0 0 10000
0 0 10000
0 0 10000
0 0 10000
0 0 10000
0 0 10000
0 0 1000
0 0 1000
0 0 1000
0 0 1000
0 0 1000
x106
0 0.2
1 0.2
2 50
3 50
4 50
5 50
6 50
7 0.2
8 0.2
9 0.2
10 0.2
11 0.2
12 0.2
13 0.2
14 0.2
15 0.2
16 0.2
17 0.2
18 0.2
19 0.2
20 0.2
21 0.2
22 0.2
23 0.2
24 0.2
25 0.2
26 0.2
27 0.2
28 0.2
29 0.2
30 0.2
31 0.2
32 100
33 100
34 100
35 100
36 100
37 0.2
38 0.2
39 0.2
40 0.2
41 0.2
42 0.2
43 0.2
44 0.2
45 0.2
46 0.2
47 0.2
48 0.2
49 0.2
50 0.2
51 0.2
52 0.2
53 0.2
54 0.2
55 0.2
56 0.2
57 0.2
58 0.2
59 0.2
60 0.2
61 0.2
62 50
63 50
64 50
65 50
66 50
67 50
68 50
69 50
70 50
71 50
72 50
73 50
74 50
75 50
76 50
77 50
78 50
79 50
80 50
81 50
82 50
83 50
84 50
85 50
86 50
87 50
88 50
89 50
90 50
91 50
92 100
93 0.2
94 0.2
95 0.2
96 1
97 1
98 1
99 1
100 1
121 50
122 50
123 50
124 50
125 50
r
4 0
4 0
4 0
4 0
4 0
4 0
4 0
4 0
4 0
4 0
4 0
4 0
4 0
4 0
4 0
4 0
4 0
4 0
4 0
4 0
4 0
4 0
4 0
4 0
4 0
4 0
4 0
4 0
4 0
4 0
4 0
4 0
4 0
4 0
4 0
4 0
4 0
4 0
4 0
4 0
4 0
4 0
4 0
4 0
4 0
4 0
4 0
4 0
4 0
4 0
4 0
4 0
4 0
4 0
4 0
4 0
4 0
4 0
4 0
4 0
4 0
4 0
4 0
4 0
4 0
4 -100
4 0
4 0
4 0
4 0
4 0
4 0
4 0
4 0
4 0
4 0
4 0
4 0
4 0
4 0
4 0
4 0
4 0
4 0
4 0
4 0
4 0
4 0
4 0
4 0
4 0
4 0
C0
o16
o54
6
o16
o2
v7
v2
o2
v37
v62
o2
v42
v67
o2
v47
v72
o2
v52
v77
o2
v57
v82
C1
o16
o54
6
o16
o2
v8
v2
o2
v38
v62
o2
v43
v67
o2
v48
v72
o2
v53
v77
o2
v58
v82
C2
o16
o54
6
o16
o2
v9
v2
o2
v39
v62
o2
v44
v67
o2
v49
v72
o2
v54
v77
o2
v59
v82
C3
o16
o54
6
o16
o2
v10
v2
o2
v40
v62
o2
v45
v67
o2
v50
v72
o2
v55
v77
o2
v60
v82
C4
o16
o54
6
o16
o2
v11
v2
o2
v41
v62
o2
v46
v67
o2
v51
v72
o2
v56
v77
o2
v61
v82
C5
o16
o54
6
o16
o2
v12
v3
o2
v37
v63
o2
v42
v68
o2
v47
v73
o2
v52
v78
o2
v57
v83
C6
o16
o54
6
o16
o2
v13
v3
o2
v38
v63
o2
v43
v68
o2
v48
v73
o2
v53
v78
o2
v58
v83
C7
o16
o54
6
o16
o2
v14
v3
o2
v39
v63
o2
v44
v68
o2
v49
v73
o2
v54
v78
o2
v59
v83
C8
o16
o54
6
o16
o2
v15
v3
o2
v40
v63
o2
v45
v68
o2
v50
v73
o2
v55
v78
o2
v60
v83
C9
o16
o54
6
o16
o2
v16
v3
o2
v41
v63
o2
v46
v68
o2
v51
v73
o2
v56
v78
o2
v61
v83
C10
o16
o54
6
o16
o2
v17
v4
o2
v37
v64
o2
v42
v69
o2
v47
v74
o2
v52
v79
o2
v57
v84
C11
o16
o54
6
o16
o2
v18
v4
o2
v38
v64
o2
v43
v69
o2
v48
v74
o2
v53
v79
o2
v58
v84
C12
o16
o54
6
o16
o2
v19
v4
o2
v39
v64
o2
v44
v69
o2
v49
v74
o2
v54
v79
o2
v59
v84
C13
o16
o54
6
o16
o2
v20
v4
o2
v40
v64
o2
v45
v69
o2
v50
v74
o2
v55
v79
o2
v60
v84
C14
o16
o54
6
o16
o2
v21
v4
o2
v41
v64
o2
v46
v69
o2
v51
v74
o2
v56
v79
o2
v61
v84
C15
o16
o54
6
o16
o2
v22
v5
o2
v37
v65
o2
v42
v70
o2
v47
v75
o2
v52
v80
o2
v57
v85
C16
o16
o54
6
o16
o2
v23
v5
o2
v38
v65
o2
v43
v70
o2
v48
v75
o2
v53
v80
o2
v58
v85
C17
o16
o54
6
o16
o2
v24
v5
o2
v39
v65
o2
v44
v70
o2
v49
v75
o2
v54
v80
o2
v59
v85
C18
o16
o54
6
o16
o2
v25
v5
o2
v40
v65
o2
v45
v70
o2
v50
v75
o2
v55
v80
o2
v60
v85
C19
o16
o54
6
o16
o2
v26
v5
o2
v41
v65
o2
v46
v70
o2
v51
v75
o2
v56
v80
o2
v61
v85
C20
o16
o54
6
o16
o2
v27
v6
o2
v37
v66
o2
v42
v71
o2
v47
v76
o2
v52
v81
o2
v57
v86
C21
o16
o54
6
o16
o2
v28
v6
o2
v38
v66
o2
v43
v71
o2
v48
v76
o2
v53
v81
o2
v58
v86
C22
o16
o54
6
o16
o2
v29
v6
o2
v39
v66
o2
v44
v71
o2
v49
v76
o2
v54
v81
o2
v59
v86
C23
o16
o54
6
o16
o2
v30
v6
o2
v40
v66
o2
v45
v71
o2
v50
v76
o2
v55
v81
o2
v60
v86
C24
o16
o54
6
o16
o2
v31
v6
o2
v41
v66
o2
v46
v71
o2
v51
v76
o2
v56
v81
o2
v61
v86
C25
o54
3
o2
v37
v32
o16
o2
v7
v2
o16
o2
v96
o1
o16
v101
v103
C26
o54
3
o2
v38
v32
o16
o2
v8
v2
o16
o2
v96
o1
o1
o2
n0.5
v101
v102
v104
C27
o54
3
o2
v39
v32
o16
o2
v9
v2
o16
o2
v96
v102
C28
o54
3
o2
v40
v32
o16
o2
v10
v2
o16
o2
v96
v103
C29
o54
3
o2
v41
v32
o16
o2
v11
v2
o16
o2
v96
v104
C30
o54
3
o2
v42
v33
o16
o2
v12
v3
o16
o2
v97
o1
o16
v105
v107
C31
o54
3
o2
v43
v33
o16
o2
v13
v3
o16
o2
v97
o1
o1
o2
n0.5
v105
v106
v108
C32
o54
3
o2
v44
v33
o16
o2
v14
v3
o16
o2
v97
v106
C33
o54
3
o2
v45
v33
o16
o2
v15
v3
o16
o2
v97
v107
C34
o54
3
o2
v46
v33
o16
o2
v16
v3
o16
o2
v97
v108
C35
o54
3
o2
v47
v34
o16
o2
v17
v4
o16
o2
v98
o1
o16
v109
v111
C36
o54
3
o2
v48
v34
o16
o2
v18
v4
o16
o2
v98
o1
o1
o2
n0.5
v109
v110
v112
C37
o54
3
o2
v49
v34
o16
o2
v19
v4
o16
o2
v98
v110
C38
o54
3
o2
v50
v34
o16
o2
v20
v4
o16
o2
v98
v111
C39
o54
3
o2
v51
v34
o16
o2
v21
v4
o16
o2
v98
v112
C40
o54
3
o2
v52
v35
o16
o2
v22
v5
o16
o2
v99
o1
o16
v113
v115
C41
o54
3
o2
v53
v35
o16
o2
v23
v5
o16
o2
v99
o1
o1
o2
n0.5
v113
v114
v116
C42
o54
3
o2
v54
v35
o16
o2
v24
v5
o16
o2
v99
v114
C43
o54
3
o2
v55
v35
o16
o2
v25
v5
o16
o2
v99
v115
C44
o54
3
o2
v56
v35
o16
o2
v26
v5
o16
o2
v99
v116
C45
o54
3
o2
v57
v36
o16
o2
v27
v6
o16
o2
v100
o1
o16
v117
v119
C46
o54
3
o2
v58
v36
o16
o2
v28
v6
o16
o2
v100
o1
o1
o2
n0.5
v117
v118
v120
C47
o54
3
o2
v59
v36
o16
o2
v29
v6
o16
o2
v100
v118
C48
o54
3
o2
v60
v36
o16
o2
v30
v6
o16
o2
v100
v119
C49
o54
3
o2
v61
v36
o16
o2
v31
v6
o16
o2
v100
v120
C50
o16
o2
v37
v37
C51
o16
o2
v42
v42
C52
o16
o2
v47
v47
C53
o16
o2
v52
v52
C54
o16
o2
v57
v57
C55
o2
o2
n-0.1
v38
v38
C56
o2
o2
n-0.1
v43
v43
C57
o2
o2
n-0.1
v48
v48
C58
o2
o2
n-0.1
v53
v53
C59
o2
o2
n-0.1
v58
v58
C60
o16
o54
6
o16
o2
v92
v93
o2
v87
v37
o2
v88
v42
o2
v89
v47
o2
v90
v52
o2
v91
v57
C61
o16
o54
6
o16
o2
v92
v0
o2
v87
v38
o2
v88
v43
o2
v89
v48
o2
v90
v53
o2
v91
v58
C62
o16
o54
6
o16
o2
v92
v94
o2
v87
v39
o2
v88
v44
o2
v89
v49
o2
v90
v54
o2
v91
v59
C63
o16
o54
6
o16
o2
v92
v1
o2
v87
v40
o2
v88
v45
o2
v89
v50
o2
v90
v55
o2
v91
v60
C64
o16
o54
6
o16
o2
v92
v95
o2
v87
v41
o2
v88
v46
o2
v89
v51
o2
v90
v56
o2
v91
v61
C65
n0
C66
n0
C67
n0
C68
n0
C69
n0
C70
n0
C71
n0
C72
n0
C73
n0
C74
n0
C75
n0
C76
n0
C77
n0
C78
n0
C79
n0
C80
n0
C81
n0
C82
n0
C83
n0
C84
n0
C85
n0
C86
n0
C87
n0
C88
n0
C89
n0
C90
n0
C91
n0
O0 0
o16
o3
v0
v1
k125
1
2
14
26
38
50
62
64
66
68
70
72
74
76
78
80
82
84
86
88
90
92
94
96
98
100
102
104
106
108
110
112
119
126
133
140
147
156
165
172
179
186
195
204
211
218
225
234
243
250
257
264
273
282
289
296
303
312
321
328
335
342
349
356
363
370
377
384
391
398
405
412
419
426
433
440
447
454
461
468
475
482
489
496
503
510
517
524
531
538
545
552
558
559
560
561
566
571
576
581
586
589
592
595
598
601
604
607
610
613
616
619
622
625
628
631
634
637
640
643
646
650
654
658
662
J0 13
2 0
7 0
37 0
42 0
47 0
52 0
57 0
62 0
67 0
72 0
77 0
82 0
121 -6
J1 12
2 0
8 0
38 0
43 0
48 0
53 0
58 0
62 0
67 0
72 0
77 0
82 0
J2 12
2 0
9 0
39 0
44 0
49 0
54 0
59 0
62 0
67 0
72 0
77 0
82 0
J3 13
2 0
10 0
40 0
45 0
50 0
55 0
60 0
62 0
67 0
72 0
77 0
82 0
121 -0.6
J4 12
2 0
11 0
41 0
46 0
51 0
56 0
61 0
62 0
67 0
72 0
77 0
82 0
J5 13
3 0
12 0
37 0
42 0
47 0
52 0
57 0
63 0
68 0
73 0
78 0
83 0
122 -6
J6 12
3 0
13 0
38 0
43 0
48 0
53 0
58 0
63 0
68 0
73 0
78 0
83 0
J7 12
3 0
14 0
39 0
44 0
49 0
54 0
59 0
63 0
68 0
73 0
78 0
83 0
J8 13
3 0
15 0
40 0
45 0
50 0
55 0
60 0
63 0
68 0
73 0
78 0
83 0
122 -0.6
J9 12
3 0
16 0
41 0
46 0
51 0
56 0
61 0
63 0
68 0
73 0
78 0
83 0
J10 13
4 0
17 0
37 0
42 0
47 0
52 0
57 0
64 0
69 0
74 0
79 0
84 0
123 -6
J11 12
4 0
18 0
38 0
43 0
48 0
53 0
58 0
64 0
69 0
74 0
79 0
84 0
J12 12
4 0
19 0
39 0
44 0
49 0
54 0
59 0
64 0
69 0
74 0
79 0
84 0
J13 13
4 0
20 0
40 0
45 0
50 0
55 0
60 0
64 0
69 0
74 0
79 0
84 0
123 -0.6
J14 12
4 0
21 0
41 0
46 0
51 0
56 0
61 0
64 0
69 0
74 0
79 0
84 0
J15 13
5 0
22 0
37 0
42 0
47 0
52 0
57 0
65 0
70 0
75 0
80 0
85 0
124 -6
J16 12
5 0
23 0
38 0
43 0
48 0
53 0
58 0
65 0
70 0
75 0
80 0
85 0
J17 12
5 0
24 0
39 0
44 0
49 0
54 0
59 0
65 0
70 0
75 0
80 0
85 0
J18 13
5 0
25 0
40 0
45 0
50 0
55 0
60 0
65 0
70 0
75 0
80 0
85 0
124 -0.6
J19 12
5 0
26 0
41 0
46 0
51 0
56 0
61 0
65 0
70 0
75 0
80 0
85 0
J20 13
6 0
27 0
37 0
42 0
47 0
52 0
57 0
66 0
71 0
76 0
81 0
86 0
125 -6
J21 12
6 0
28 0
38 0
43 0
48 0
53 0
58 0
66 0
71 0
76 0
81 0
86 0
J22 12
6 0
29 0
39 0
44 0
49 0
54 0
59 0
66 0
71 0
76 0
81 0
86 0
J23 13
6 0
30 0
40 0
45 0
50 0
55 0
60 0
66 0
71 0
76 0
81 0
86 0
125 -0.6
J24 12
6 0
31 0
41 0
46 0
51 0
56 0
61 0
66 0
71 0
76 0
81 0
86 0
J25 7
2 0
7 0
32 0
37 0
96 0
101 0
103 0
J26 8
2 0
8 0
32 0
38 0
96 0
101 0
102 0
104 0
J27 6
2 0
9 0
32 0
39 0
96 0
102 0
J28 6
2 0
10 0
32 0
40 0
96 0
103 0
J29 6
2 0
11 0
32 0
41 0
96 0
104 0
J30 7
3 0
12 0
33 0
42 0
97 0
105 0
107 0
J31 8
3 0
13 0
33 0
43 0
97 0
105 0
106 0
108 0
J32 6
3 0
14 0
33 0
44 0
97 0
106 0
J33 6
3 0
15 0
33 0
45 0
97 0
107 0
J34 6
3 0
16 0
33 0
46 0
97 0
108 0
J35 7
4 0
17 0
34 0
47 0
98 0
109 0
111 0
J36 8
4 0
18 0
34 0
48 0
98 0
109 0
110 0
112 0
J37 6
4 0
19 0
34 0
49 0
98 0
110 0
J38 6
4 0
20 0
34 0
50 0
98 0
111 0
J39 6
4 0
21 0
34 0
51 0
98 0
112 0
J40 7
5 0
22 0
35 0
52 0
99 0
113 0
115 0
J41 8
5 0
23 0
35 0
53 0
99 0
113 0
114 0
116 0
J42 6
5 0
24 0
35 0
54 0
99 0
114 0
J43 6
5 0
25 0
35 0
55 0
99 0
115 0
J44 6
5 0
26 0
35 0
56 0
99 0
116 0
J45 7
6 0
27 0
36 0
57 0
100 0
117 0
119 0
J46 8
6 0
28 0
36 0
58 0
100 0
117 0
118 0
120 0
J47 6
6 0
29 0
36 0
59 0
100 0
118 0
J48 6
6 0
30 0
36 0
60 0
100 0
119 0
J49 6
6 0
31 0
36 0
61 0
100 0
120 0
J50 2
37 0
101 1
J51 2
42 0
105 1
J52 2
47 0
109 1
J53 2
52 0
113 1
J54 2
57 0
117 1
J55 2
38 0
104 1
J56 2
43 0
108 1
J57 2
48 0
112 1
J58 2
53 0
116 1
J59 2
58 0
120 1
J60 12
37 0
42 0
47 0
52 0
57 0
87 0
88 0
89 0
90 0
91 0
92 0
93 0
J61 12
0 0
38 0
43 0
48 0
53 0
58 0
87 0
88 0
89 0
90 0
91 0
92 0
J62 12
39 0
44 0
49 0
54 0
59 0
87 0
88 0
89 0
90 0
91 0
92 0
94 0
J63 12
1 0
40 0
45 0
50 0
55 0
60 0
87 0
88 0
89 0
90 0
91 0
92 0
J64 12
41 0
46 0
51 0
56 0
61 0
87 0
88 0
89 0
90 0
91 0
92 0
95 0
J65 5
121 -1
122 -1
123 -1
124 -1
125 -1
J66 7
2 1
62 -1
67 -1
72 -1
77 -1
82 -1
121 -1
J67 7
3 1
63 -1
68 -1
73 -1
78 -1
83 -1
122 -1
J68 7
4 1
64 -1
69 -1
74 -1
79 -1
84 -1
123 -1
J69 7
5 1
65 -1
70 -1
75 -1
80 -1
85 -1
124 -1
J70 7
6 1
66 -1
71 -1
76 -1
81 -1
86 -1
125 -1
J71 2
2 -1
32 1
J72 2
3 -1
33 1
J73 2
4 -1
34 1
J74 2
5 -1
35 1
J75 2
6 -1
36 1
J76 2
38 -0.6
102 1
J77 2
43 -0.6
106 1
J78 2
48 -0.6
110 1
J79 2
53 -0.6
114 1
J80 2
58 -0.6
118 1
J81 2
37 -0.6
103 1
J82 2
42 -0.6
107 1
J83 2
47 -0.6
111 1
J84 2
52 -0.6
115 1
J85 2
57 -0.6
119 1
J86 7
32 1
62 -1
63 -1
64 -1
65 -1
66 -1
87 -1
J87 7
33 1
67 -1
68 -1
69 -1
70 -1
71 -1
88 -1
J88 7
34 1
72 -1
73 -1
74 -1
75 -1
76 -1
89 -1
J89 7
35 1
77 -1
78 -1
79 -1
80 -1
81 -1
90 -1
J90 7
36 1
82 -1
83 -1
84 -1
85 -1
86 -1
91 -1
J91 6
87 -1
88 -1
89 -1
90 -1
91 -1
92 1
G0 2
0 0
1 0
